\ Generated by MPModelProtoExporter
\   Name             : SCIP
\   Format           : Free
\   Constraints      : 45
\   Variables        : 465
\     Binary         : 465
\     Integer        : 0
\     Continuous     : 0
Minimize
 Obj: +54 x[0,0] +75 x[0,1] +99 x[0,2] +20 x[0,3] +60 x[0,4] +16 x[0,5] +37 x[0,6] +23 x[0,7] +1 x[0,8] +81 x[0,9] +24 x[0,10] +14 x[0,11] +49 x[0,12] +60 x[0,13] +58 x[0,14] +30 x[1,0] +11 x[1,1] +94 x[1,2] +26 x[1,3] +72 x[1,4] +69 x[1,5] +36 x[1,6] +83 x[1,7] +12 x[1,8] +10 x[1,9] +7 x[1,10] +86 x[1,11] +23 x[1,12] +52 x[1,13] +94 x[1,14] +93 x[2,0] +97 x[2,1] +66 x[2,2] +84 x[2,3] +2 x[2,4] +90 x[2,5] +50 x[2,6] +2 x[2,7] +87 x[2,8] +99 x[2,9] +19 x[2,10] +2 x[2,11] +63 x[2,12] +58 x[2,13] +95 x[2,14] +39 x[3,0] +73 x[3,1] +15 x[3,2] +28 x[3,3] +22 x[3,4] +97 x[3,5] +31 x[3,6] +80 x[3,7] +13 x[3,8] +19 x[3,9] +99 x[3,10] +39 x[3,11] +22 x[3,12] +88 x[3,13] +86 x[3,14] +63 x[4,0] +35 x[4,1] +82 x[4,2] +41 x[4,3] +65 x[4,4] +54 x[4,5] +52 x[4,6] +21 x[4,7] +83 x[4,8] +33 x[4,9] +96 x[4,10] +33 x[4,11] +97 x[4,12] +62 x[4,13] +98 x[4,14] +91 x[5,0] +1 x[5,1] +8 x[5,2] +37 x[5,3] +32 x[5,4] +20 x[5,5] +33 x[5,6] +42 x[5,7] +47 x[5,8] +52 x[5,9] +37 x[5,10] +51 x[5,11] +18 x[5,12] +57 x[5,13] +97 x[5,14] +1 x[6,0] +64 x[6,1] +28 x[6,2] +15 x[6,3] +55 x[6,4] +42 x[6,5] +29 x[6,6] +68 x[6,7] +49 x[6,8] +56 x[6,9] +65 x[6,10] +49 x[6,11] +4 x[6,12] +67 x[6,13] +33 x[6,14] +30 x[7,0] +45 x[7,1] +61 x[7,3] +86 x[7,4] +25 x[7,5] +11 x[7,6] +41 x[7,7] +66 x[7,8] +29 x[7,9] +40 x[7,10] +6 x[7,11] +92 x[7,12] +27 x[7,13] +74 x[7,14] +13 x[8,0] +32 x[8,1] +87 x[8,2] +91 x[8,3] +31 x[8,4] +70 x[8,5] +72 x[8,6] +64 x[8,7] +36 x[8,8] +73 x[8,9] +83 x[8,10] +38 x[8,11] +81 x[8,12] +26 x[8,13] +17 x[8,14] +16 x[9,0] +76 x[9,1] +86 x[9,2] +61 x[9,3] +21 x[9,4] +1 x[9,5] +77 x[9,6] +29 x[9,7] +3 x[9,8] +47 x[9,9] +23 x[9,10] +21 x[9,11] +25 x[9,12] +41 x[9,13] +98 x[9,14] +62 x[10,0] +42 x[10,1] +9 x[10,2] +36 x[10,3] +50 x[10,4] +55 x[10,5] +86 x[10,6] +22 x[10,7] +7 x[10,8] +98 x[10,9] +72 x[10,10] +75 x[10,11] +37 x[10,12] +8 x[10,13] +96 x[10,14] +78 x[11,0] +11 x[11,1] +70 x[11,2] +29 x[11,3] +21 x[11,4] +48 x[11,5] +38 x[11,6] +73 x[11,7] +70 x[11,8] +60 x[11,9] +85 x[11,10] +1 x[11,11] +64 x[11,12] +72 x[11,13] +18 x[11,14] +38 x[12,0] +10 x[12,1] +41 x[12,2] +76 x[12,3] +1 x[12,4] +29 x[12,5] +35 x[12,6] +88 x[12,7] +36 x[12,8] +79 x[12,9] +56 x[12,10] +57 x[12,11] +27 x[12,12] +41 x[12,13] +86 x[12,14] +5 x[13,0] +55 x[13,1] +51 x[13,2] +27 x[13,3] +92 x[13,4] +54 x[13,5] +35 x[13,6] +46 x[13,7] +85 x[13,8] +61 x[13,9] +43 x[13,10] +45 x[13,11] +57 x[13,12] +69 x[13,13] +14 x[13,14] +28 x[14,0] +32 x[14,1] +56 x[14,2] +19 x[14,3] +12 x[14,4] +98 x[14,5] +3 x[14,6] +45 x[14,7] +32 x[14,8] +72 x[14,9] +56 x[14,10] +36 x[14,11] +29 x[14,12] +77 x[14,13] +93 x[14,14] +99 x[15,0] +99 x[15,1] +68 x[15,2] +82 x[15,3] +31 x[15,4] +73 x[15,5] +17 x[15,6] +64 x[15,7] +40 x[15,8] +39 x[15,9] +42 x[15,10] +78 x[15,11] +57 x[15,12] +28 x[15,13] +43 x[15,14] +24 x[16,0] +56 x[16,1] +28 x[16,2] +81 x[16,3] +34 x[16,4] +53 x[16,5] +93 x[16,6] +7 x[16,7] +79 x[16,8] +24 x[16,9] +70 x[16,10] +38 x[16,11] +47 x[16,12] +72 x[16,13] +53 x[16,14] +18 x[17,0] +71 x[17,1] +38 x[17,2] +35 x[17,3] +32 x[17,4] +82 x[17,5] +38 x[17,6] +26 x[17,7] +56 x[17,8] +28 x[17,9] +61 x[17,10] +56 x[17,11] +40 x[17,12] +67 x[17,13] +59 x[17,14] +71 x[18,0] +89 x[18,1] +41 x[18,2] +33 x[18,3] +3 x[18,4] +73 x[18,5] +92 x[18,6] +75 x[18,7] +69 x[18,8] +75 x[18,9] +52 x[18,10] +22 x[18,11] +23 x[18,12] +64 x[18,13] +42 x[18,14] +53 x[19,0] +74 x[19,1] +64 x[19,2] +63 x[19,3] +9 x[19,4] +45 x[19,5] +33 x[19,6] +38 x[19,7] +28 x[19,8] +28 x[19,9] +91 x[19,10] +69 x[19,11] +30 x[19,12] +63 x[19,13] +55 x[19,14] +84 x[20,1] +51 x[20,2] +65 x[20,3] +1 x[20,4] +53 x[20,5] +76 x[20,6] +19 x[20,7] +28 x[20,8] +83 x[20,9] +91 x[20,10] +45 x[20,11] +96 x[20,12] +2 x[20,13] +4 x[20,14] +79 x[21,0] +5 x[21,1] +30 x[21,2] +53 x[21,3] +21 x[21,4] +78 x[21,5] +22 x[21,6] +75 x[21,7] +4 x[21,8] +14 x[21,9] +92 x[21,10] +91 x[21,11] +79 x[21,12] +65 x[21,13] +93 x[21,14] +73 x[22,0] +16 x[22,1] +80 x[22,2] +52 x[22,3] +65 x[22,4] +64 x[22,5] +91 x[22,6] +81 x[22,7] +61 x[22,8] +25 x[22,9] +20 x[22,10] +14 x[22,11] +79 x[22,12] +36 x[22,13] +43 x[22,14] +40 x[23,0] +71 x[23,1] +57 x[23,2] +26 x[23,3] +43 x[23,4] +71 x[23,5] +20 x[23,6] +29 x[23,7] +50 x[23,8] +59 x[23,9] +75 x[23,10] +53 x[23,11] +60 x[23,12] +91 x[23,13] +49 x[23,14] +50 x[24,0] +5 x[24,1] +37 x[24,2] +96 x[24,3] +38 x[24,4] +69 x[24,5] +27 x[24,6] +4 x[24,7] +99 x[24,8] +45 x[24,9] +67 x[24,10] +98 x[24,11] +27 x[24,12] +37 x[24,13] +17 x[24,14] +40 x[25,0] +78 x[25,1] +22 x[25,2] +23 x[25,3] +23 x[25,4] +27 x[25,5] +14 x[25,6] +24 x[25,7] +14 x[25,8] +34 x[25,9] +25 x[25,10] +27 x[25,11] +78 x[25,12] +78 x[25,13] +94 x[25,14] +72 x[26,0] +6 x[26,1] +11 x[26,2] +35 x[26,3] +53 x[26,4] +20 x[26,5] +37 x[26,6] +25 x[26,7] +65 x[26,8] +25 x[26,9] +21 x[26,10] +33 x[26,11] +93 x[26,12] +41 x[26,13] +86 x[26,14] +60 x[27,0] +61 x[27,1] +21 x[27,2] +41 x[27,3] +46 x[27,4] +1 x[27,5] +50 x[27,6] +61 x[27,7] +53 x[27,8] +26 x[27,9] +81 x[27,10] +15 x[27,11] +41 x[27,12] +99 x[27,13] +41 x[27,14] +91 x[28,0] +95 x[28,1] +48 x[28,2] +25 x[28,3] +89 x[28,4] +59 x[28,5] +55 x[28,6] +58 x[28,7] +66 x[28,8] +99 x[28,9] +28 x[28,10] +91 x[28,11] +57 x[28,12] +94 x[28,13] +30 x[28,14] +58 x[29,0] +15 x[29,1] +26 x[29,2] +29 x[29,3] +18 x[29,4] +25 x[29,5] +20 x[29,6] +89 x[29,7] +59 x[29,8] +8 x[29,9] +56 x[29,10] +7 x[29,11] +21 x[29,12] +98 x[29,13] +53 x[29,14] +204 y[0] +148 y[1] +188 y[2] +185 y[3] +154 y[4] +278 y[5] +107 y[6] +304 y[7] +382 y[8] +420 y[9] +401 y[10] +205 y[11] +149 y[12] +142 y[13] +433 y[14] 
Subject to
 auto_c_000000000: +1 x[0,0] +1 x[0,1] +1 x[0,2] +1 x[0,3] +1 x[0,4] +1 x[0,5] +1 x[0,6] +1 x[0,7] +1 x[0,8] +1 x[0,9] +1 x[0,10] +1 x[0,11] +1 x[0,12] +1 x[0,13] +1 x[0,14]  = 1
 auto_c_000000001: +1 x[1,0] +1 x[1,1] +1 x[1,2] +1 x[1,3] +1 x[1,4] +1 x[1,5] +1 x[1,6] +1 x[1,7] +1 x[1,8] +1 x[1,9] +1 x[1,10] +1 x[1,11] +1 x[1,12] +1 x[1,13] +1 x[1,14]  = 1
 auto_c_000000002: +1 x[2,0] +1 x[2,1] +1 x[2,2] +1 x[2,3] +1 x[2,4] +1 x[2,5] +1 x[2,6] +1 x[2,7] +1 x[2,8] +1 x[2,9] +1 x[2,10] +1 x[2,11] +1 x[2,12] +1 x[2,13] +1 x[2,14]  = 1
 auto_c_000000003: +1 x[3,0] +1 x[3,1] +1 x[3,2] +1 x[3,3] +1 x[3,4] +1 x[3,5] +1 x[3,6] +1 x[3,7] +1 x[3,8] +1 x[3,9] +1 x[3,10] +1 x[3,11] +1 x[3,12] +1 x[3,13] +1 x[3,14]  = 1
 auto_c_000000004: +1 x[4,0] +1 x[4,1] +1 x[4,2] +1 x[4,3] +1 x[4,4] +1 x[4,5] +1 x[4,6] +1 x[4,7] +1 x[4,8] +1 x[4,9] +1 x[4,10] +1 x[4,11] +1 x[4,12] +1 x[4,13] +1 x[4,14]  = 1
 auto_c_000000005: +1 x[5,0] +1 x[5,1] +1 x[5,2] +1 x[5,3] +1 x[5,4] +1 x[5,5] +1 x[5,6] +1 x[5,7] +1 x[5,8] +1 x[5,9] +1 x[5,10] +1 x[5,11] +1 x[5,12] +1 x[5,13] +1 x[5,14]  = 1
 auto_c_000000006: +1 x[6,0] +1 x[6,1] +1 x[6,2] +1 x[6,3] +1 x[6,4] +1 x[6,5] +1 x[6,6] +1 x[6,7] +1 x[6,8] +1 x[6,9] +1 x[6,10] +1 x[6,11] +1 x[6,12] +1 x[6,13] +1 x[6,14]  = 1
 auto_c_000000007: +1 x[7,0] +1 x[7,1] +1 x[7,2] +1 x[7,3] +1 x[7,4] +1 x[7,5] +1 x[7,6] +1 x[7,7] +1 x[7,8] +1 x[7,9] +1 x[7,10] +1 x[7,11] +1 x[7,12] +1 x[7,13] +1 x[7,14]  = 1
 auto_c_000000008: +1 x[8,0] +1 x[8,1] +1 x[8,2] +1 x[8,3] +1 x[8,4] +1 x[8,5] +1 x[8,6] +1 x[8,7] +1 x[8,8] +1 x[8,9] +1 x[8,10] +1 x[8,11] +1 x[8,12] +1 x[8,13] +1 x[8,14]  = 1
 auto_c_000000009: +1 x[9,0] +1 x[9,1] +1 x[9,2] +1 x[9,3] +1 x[9,4] +1 x[9,5] +1 x[9,6] +1 x[9,7] +1 x[9,8] +1 x[9,9] +1 x[9,10] +1 x[9,11] +1 x[9,12] +1 x[9,13] +1 x[9,14]  = 1
 auto_c_000000010: +1 x[10,0] +1 x[10,1] +1 x[10,2] +1 x[10,3] +1 x[10,4] +1 x[10,5] +1 x[10,6] +1 x[10,7] +1 x[10,8] +1 x[10,9] +1 x[10,10] +1 x[10,11] +1 x[10,12] +1 x[10,13] +1 x[10,14]  = 1
 auto_c_000000011: +1 x[11,0] +1 x[11,1] +1 x[11,2] +1 x[11,3] +1 x[11,4] +1 x[11,5] +1 x[11,6] +1 x[11,7] +1 x[11,8] +1 x[11,9] +1 x[11,10] +1 x[11,11] +1 x[11,12] +1 x[11,13] +1 x[11,14]  = 1
 auto_c_000000012: +1 x[12,0] +1 x[12,1] +1 x[12,2] +1 x[12,3] +1 x[12,4] +1 x[12,5] +1 x[12,6] +1 x[12,7] +1 x[12,8] +1 x[12,9] +1 x[12,10] +1 x[12,11] +1 x[12,12] +1 x[12,13] +1 x[12,14]  = 1
 auto_c_000000013: +1 x[13,0] +1 x[13,1] +1 x[13,2] +1 x[13,3] +1 x[13,4] +1 x[13,5] +1 x[13,6] +1 x[13,7] +1 x[13,8] +1 x[13,9] +1 x[13,10] +1 x[13,11] +1 x[13,12] +1 x[13,13] +1 x[13,14]  = 1
 auto_c_000000014: +1 x[14,0] +1 x[14,1] +1 x[14,2] +1 x[14,3] +1 x[14,4] +1 x[14,5] +1 x[14,6] +1 x[14,7] +1 x[14,8] +1 x[14,9] +1 x[14,10] +1 x[14,11] +1 x[14,12] +1 x[14,13] +1 x[14,14]  = 1
 auto_c_000000015: +1 x[15,0] +1 x[15,1] +1 x[15,2] +1 x[15,3] +1 x[15,4] +1 x[15,5] +1 x[15,6] +1 x[15,7] +1 x[15,8] +1 x[15,9] +1 x[15,10] +1 x[15,11] +1 x[15,12] +1 x[15,13] +1 x[15,14]  = 1
 auto_c_000000016: +1 x[16,0] +1 x[16,1] +1 x[16,2] +1 x[16,3] +1 x[16,4] +1 x[16,5] +1 x[16,6] +1 x[16,7] +1 x[16,8] +1 x[16,9] +1 x[16,10] +1 x[16,11] +1 x[16,12] +1 x[16,13] +1 x[16,14]  = 1
 auto_c_000000017: +1 x[17,0] +1 x[17,1] +1 x[17,2] +1 x[17,3] +1 x[17,4] +1 x[17,5] +1 x[17,6] +1 x[17,7] +1 x[17,8] +1 x[17,9] +1 x[17,10] +1 x[17,11] +1 x[17,12] +1 x[17,13] +1 x[17,14]  = 1
 auto_c_000000018: +1 x[18,0] +1 x[18,1] +1 x[18,2] +1 x[18,3] +1 x[18,4] +1 x[18,5] +1 x[18,6] +1 x[18,7] +1 x[18,8] +1 x[18,9] +1 x[18,10] +1 x[18,11] +1 x[18,12] +1 x[18,13] +1 x[18,14]  = 1
 auto_c_000000019: +1 x[19,0] +1 x[19,1] +1 x[19,2] +1 x[19,3] +1 x[19,4] +1 x[19,5] +1 x[19,6] +1 x[19,7] +1 x[19,8] +1 x[19,9] +1 x[19,10] +1 x[19,11] +1 x[19,12] +1 x[19,13] +1 x[19,14]  = 1
 auto_c_000000020: +1 x[20,0] +1 x[20,1] +1 x[20,2] +1 x[20,3] +1 x[20,4] +1 x[20,5] +1 x[20,6] +1 x[20,7] +1 x[20,8] +1 x[20,9] +1 x[20,10] +1 x[20,11] +1 x[20,12] +1 x[20,13] +1 x[20,14]  = 1
 auto_c_000000021: +1 x[21,0] +1 x[21,1] +1 x[21,2] +1 x[21,3] +1 x[21,4] +1 x[21,5] +1 x[21,6] +1 x[21,7] +1 x[21,8] +1 x[21,9] +1 x[21,10] +1 x[21,11] +1 x[21,12] +1 x[21,13] +1 x[21,14]  = 1
 auto_c_000000022: +1 x[22,0] +1 x[22,1] +1 x[22,2] +1 x[22,3] +1 x[22,4] +1 x[22,5] +1 x[22,6] +1 x[22,7] +1 x[22,8] +1 x[22,9] +1 x[22,10] +1 x[22,11] +1 x[22,12] +1 x[22,13] +1 x[22,14]  = 1
 auto_c_000000023: +1 x[23,0] +1 x[23,1] +1 x[23,2] +1 x[23,3] +1 x[23,4] +1 x[23,5] +1 x[23,6] +1 x[23,7] +1 x[23,8] +1 x[23,9] +1 x[23,10] +1 x[23,11] +1 x[23,12] +1 x[23,13] +1 x[23,14]  = 1
 auto_c_000000024: +1 x[24,0] +1 x[24,1] +1 x[24,2] +1 x[24,3] +1 x[24,4] +1 x[24,5] +1 x[24,6] +1 x[24,7] +1 x[24,8] +1 x[24,9] +1 x[24,10] +1 x[24,11] +1 x[24,12] +1 x[24,13] +1 x[24,14]  = 1
 auto_c_000000025: +1 x[25,0] +1 x[25,1] +1 x[25,2] +1 x[25,3] +1 x[25,4] +1 x[25,5] +1 x[25,6] +1 x[25,7] +1 x[25,8] +1 x[25,9] +1 x[25,10] +1 x[25,11] +1 x[25,12] +1 x[25,13] +1 x[25,14]  = 1
 auto_c_000000026: +1 x[26,0] +1 x[26,1] +1 x[26,2] +1 x[26,3] +1 x[26,4] +1 x[26,5] +1 x[26,6] +1 x[26,7] +1 x[26,8] +1 x[26,9] +1 x[26,10] +1 x[26,11] +1 x[26,12] +1 x[26,13] +1 x[26,14]  = 1
 auto_c_000000027: +1 x[27,0] +1 x[27,1] +1 x[27,2] +1 x[27,3] +1 x[27,4] +1 x[27,5] +1 x[27,6] +1 x[27,7] +1 x[27,8] +1 x[27,9] +1 x[27,10] +1 x[27,11] +1 x[27,12] +1 x[27,13] +1 x[27,14]  = 1
 auto_c_000000028: +1 x[28,0] +1 x[28,1] +1 x[28,2] +1 x[28,3] +1 x[28,4] +1 x[28,5] +1 x[28,6] +1 x[28,7] +1 x[28,8] +1 x[28,9] +1 x[28,10] +1 x[28,11] +1 x[28,12] +1 x[28,13] +1 x[28,14]  = 1
 auto_c_000000029: +1 x[29,0] +1 x[29,1] +1 x[29,2] +1 x[29,3] +1 x[29,4] +1 x[29,5] +1 x[29,6] +1 x[29,7] +1 x[29,8] +1 x[29,9] +1 x[29,10] +1 x[29,11] +1 x[29,12] +1 x[29,13] +1 x[29,14]  = 1
 auto_c_000000030: +10 x[0,0] +28 x[1,0] +28 x[2,0] +24 x[3,0] +27 x[4,0] +18 x[5,0] +28 x[6,0] +11 x[7,0] +23 x[8,0] +26 x[9,0] +27 x[10,0] +10 x[11,0] +27 x[12,0] +22 x[13,0] +24 x[14,0] +11 x[15,0] +10 x[16,0] +12 x[17,0] +15 x[18,0] +20 x[19,0] +24 x[20,0] +21 x[21,0] +21 x[22,0] +21 x[23,0] +20 x[24,0] +10 x[25,0] +10 x[26,0] +25 x[27,0] +16 x[28,0] +25 x[29,0] -68 y[0]  <= 0
 auto_c_000000031: +10 x[0,1] +28 x[1,1] +28 x[2,1] +24 x[3,1] +27 x[4,1] +18 x[5,1] +28 x[6,1] +11 x[7,1] +23 x[8,1] +26 x[9,1] +27 x[10,1] +10 x[11,1] +27 x[12,1] +22 x[13,1] +24 x[14,1] +11 x[15,1] +10 x[16,1] +12 x[17,1] +15 x[18,1] +20 x[19,1] +24 x[20,1] +21 x[21,1] +21 x[22,1] +21 x[23,1] +20 x[24,1] +10 x[25,1] +10 x[26,1] +25 x[27,1] +16 x[28,1] +25 x[29,1] -51 y[1]  <= 0
 auto_c_000000032: +10 x[0,2] +28 x[1,2] +28 x[2,2] +24 x[3,2] +27 x[4,2] +18 x[5,2] +28 x[6,2] +11 x[7,2] +23 x[8,2] +26 x[9,2] +27 x[10,2] +10 x[11,2] +27 x[12,2] +22 x[13,2] +24 x[14,2] +11 x[15,2] +10 x[16,2] +12 x[17,2] +15 x[18,2] +20 x[19,2] +24 x[20,2] +21 x[21,2] +21 x[22,2] +21 x[23,2] +20 x[24,2] +10 x[25,2] +10 x[26,2] +25 x[27,2] +16 x[28,2] +25 x[29,2] -52 y[2]  <= 0
 auto_c_000000033: +10 x[0,3] +28 x[1,3] +28 x[2,3] +24 x[3,3] +27 x[4,3] +18 x[5,3] +28 x[6,3] +11 x[7,3] +23 x[8,3] +26 x[9,3] +27 x[10,3] +10 x[11,3] +27 x[12,3] +22 x[13,3] +24 x[14,3] +11 x[15,3] +10 x[16,3] +12 x[17,3] +15 x[18,3] +20 x[19,3] +24 x[20,3] +21 x[21,3] +21 x[22,3] +21 x[23,3] +20 x[24,3] +10 x[25,3] +10 x[26,3] +25 x[27,3] +16 x[28,3] +25 x[29,3] -74 y[3]  <= 0
 auto_c_000000034: +10 x[0,4] +28 x[1,4] +28 x[2,4] +24 x[3,4] +27 x[4,4] +18 x[5,4] +28 x[6,4] +11 x[7,4] +23 x[8,4] +26 x[9,4] +27 x[10,4] +10 x[11,4] +27 x[12,4] +22 x[13,4] +24 x[14,4] +11 x[15,4] +10 x[16,4] +12 x[17,4] +15 x[18,4] +20 x[19,4] +24 x[20,4] +21 x[21,4] +21 x[22,4] +21 x[23,4] +20 x[24,4] +10 x[25,4] +10 x[26,4] +25 x[27,4] +16 x[28,4] +25 x[29,4] -60 y[4]  <= 0
 auto_c_000000035: +10 x[0,5] +28 x[1,5] +28 x[2,5] +24 x[3,5] +27 x[4,5] +18 x[5,5] +28 x[6,5] +11 x[7,5] +23 x[8,5] +26 x[9,5] +27 x[10,5] +10 x[11,5] +27 x[12,5] +22 x[13,5] +24 x[14,5] +11 x[15,5] +10 x[16,5] +12 x[17,5] +15 x[18,5] +20 x[19,5] +24 x[20,5] +21 x[21,5] +21 x[22,5] +21 x[23,5] +20 x[24,5] +10 x[25,5] +10 x[26,5] +25 x[27,5] +16 x[28,5] +25 x[29,5] -61 y[5]  <= 0
 auto_c_000000036: +10 x[0,6] +28 x[1,6] +28 x[2,6] +24 x[3,6] +27 x[4,6] +18 x[5,6] +28 x[6,6] +11 x[7,6] +23 x[8,6] +26 x[9,6] +27 x[10,6] +10 x[11,6] +27 x[12,6] +22 x[13,6] +24 x[14,6] +11 x[15,6] +10 x[16,6] +12 x[17,6] +15 x[18,6] +20 x[19,6] +24 x[20,6] +21 x[21,6] +21 x[22,6] +21 x[23,6] +20 x[24,6] +10 x[25,6] +10 x[26,6] +25 x[27,6] +16 x[28,6] +25 x[29,6] -33 y[6]  <= 0
 auto_c_000000037: +10 x[0,7] +28 x[1,7] +28 x[2,7] +24 x[3,7] +27 x[4,7] +18 x[5,7] +28 x[6,7] +11 x[7,7] +23 x[8,7] +26 x[9,7] +27 x[10,7] +10 x[11,7] +27 x[12,7] +22 x[13,7] +24 x[14,7] +11 x[15,7] +10 x[16,7] +12 x[17,7] +15 x[18,7] +20 x[19,7] +24 x[20,7] +21 x[21,7] +21 x[22,7] +21 x[23,7] +20 x[24,7] +10 x[25,7] +10 x[26,7] +25 x[27,7] +16 x[28,7] +25 x[29,7] -74 y[7]  <= 0
 auto_c_000000038: +10 x[0,8] +28 x[1,8] +28 x[2,8] +24 x[3,8] +27 x[4,8] +18 x[5,8] +28 x[6,8] +11 x[7,8] +23 x[8,8] +26 x[9,8] +27 x[10,8] +10 x[11,8] +27 x[12,8] +22 x[13,8] +24 x[14,8] +11 x[15,8] +10 x[16,8] +12 x[17,8] +15 x[18,8] +20 x[19,8] +24 x[20,8] +21 x[21,8] +21 x[22,8] +21 x[23,8] +20 x[24,8] +10 x[25,8] +10 x[26,8] +25 x[27,8] +16 x[28,8] +25 x[29,8] -63 y[8]  <= 0
 auto_c_000000039: +10 x[0,9] +28 x[1,9] +28 x[2,9] +24 x[3,9] +27 x[4,9] +18 x[5,9] +28 x[6,9] +11 x[7,9] +23 x[8,9] +26 x[9,9] +27 x[10,9] +10 x[11,9] +27 x[12,9] +22 x[13,9] +24 x[14,9] +11 x[15,9] +10 x[16,9] +12 x[17,9] +15 x[18,9] +20 x[19,9] +24 x[20,9] +21 x[21,9] +21 x[22,9] +21 x[23,9] +20 x[24,9] +10 x[25,9] +10 x[26,9] +25 x[27,9] +16 x[28,9] +25 x[29,9] -73 y[9]  <= 0
 auto_c_000000040: +10 x[0,10] +28 x[1,10] +28 x[2,10] +24 x[3,10] +27 x[4,10] +18 x[5,10] +28 x[6,10] +11 x[7,10] +23 x[8,10] +26 x[9,10] +27 x[10,10] +10 x[11,10] +27 x[12,10] +22 x[13,10] +24 x[14,10] +11 x[15,10] +10 x[16,10] +12 x[17,10] +15 x[18,10] +20 x[19,10] +24 x[20,10] +21 x[21,10] +21 x[22,10] +21 x[23,10] +20 x[24,10] +10 x[25,10] +10 x[26,10] +25 x[27,10] +16 x[28,10] +25 x[29,10] -81 y[10]  <= 0
 auto_c_000000041: +10 x[0,11] +28 x[1,11] +28 x[2,11] +24 x[3,11] +27 x[4,11] +18 x[5,11] +28 x[6,11] +11 x[7,11] +23 x[8,11] +26 x[9,11] +27 x[10,11] +10 x[11,11] +27 x[12,11] +22 x[13,11] +24 x[14,11] +11 x[15,11] +10 x[16,11] +12 x[17,11] +15 x[18,11] +20 x[19,11] +24 x[20,11] +21 x[21,11] +21 x[22,11] +21 x[23,11] +20 x[24,11] +10 x[25,11] +10 x[26,11] +25 x[27,11] +16 x[28,11] +25 x[29,11] -44 y[11]  <= 0
 auto_c_000000042: +10 x[0,12] +28 x[1,12] +28 x[2,12] +24 x[3,12] +27 x[4,12] +18 x[5,12] +28 x[6,12] +11 x[7,12] +23 x[8,12] +26 x[9,12] +27 x[10,12] +10 x[11,12] +27 x[12,12] +22 x[13,12] +24 x[14,12] +11 x[15,12] +10 x[16,12] +12 x[17,12] +15 x[18,12] +20 x[19,12] +24 x[20,12] +21 x[21,12] +21 x[22,12] +21 x[23,12] +20 x[24,12] +10 x[25,12] +10 x[26,12] +25 x[27,12] +16 x[28,12] +25 x[29,12] -44 y[12]  <= 0
 auto_c_000000043: +10 x[0,13] +28 x[1,13] +28 x[2,13] +24 x[3,13] +27 x[4,13] +18 x[5,13] +28 x[6,13] +11 x[7,13] +23 x[8,13] +26 x[9,13] +27 x[10,13] +10 x[11,13] +27 x[12,13] +22 x[13,13] +24 x[14,13] +11 x[15,13] +10 x[16,13] +12 x[17,13] +15 x[18,13] +20 x[19,13] +24 x[20,13] +21 x[21,13] +21 x[22,13] +21 x[23,13] +20 x[24,13] +10 x[25,13] +10 x[26,13] +25 x[27,13] +16 x[28,13] +25 x[29,13] -48 y[13]  <= 0
 auto_c_000000044: +10 x[0,14] +28 x[1,14] +28 x[2,14] +24 x[3,14] +27 x[4,14] +18 x[5,14] +28 x[6,14] +11 x[7,14] +23 x[8,14] +26 x[9,14] +27 x[10,14] +10 x[11,14] +27 x[12,14] +22 x[13,14] +24 x[14,14] +11 x[15,14] +10 x[16,14] +12 x[17,14] +15 x[18,14] +20 x[19,14] +24 x[20,14] +21 x[21,14] +21 x[22,14] +21 x[23,14] +20 x[24,14] +10 x[25,14] +10 x[26,14] +25 x[27,14] +16 x[28,14] +25 x[29,14] -64 y[14]  <= 0
Bounds
 0 <= x[0,0] <= 1
 0 <= x[0,1] <= 1
 0 <= x[0,2] <= 1
 0 <= x[0,3] <= 1
 0 <= x[0,4] <= 1
 0 <= x[0,5] <= 1
 0 <= x[0,6] <= 1
 0 <= x[0,7] <= 1
 0 <= x[0,8] <= 1
 0 <= x[0,9] <= 1
 0 <= x[0,10] <= 1
 0 <= x[0,11] <= 1
 0 <= x[0,12] <= 1
 0 <= x[0,13] <= 1
 0 <= x[0,14] <= 1
 0 <= x[1,0] <= 1
 0 <= x[1,1] <= 1
 0 <= x[1,2] <= 1
 0 <= x[1,3] <= 1
 0 <= x[1,4] <= 1
 0 <= x[1,5] <= 1
 0 <= x[1,6] <= 1
 0 <= x[1,7] <= 1
 0 <= x[1,8] <= 1
 0 <= x[1,9] <= 1
 0 <= x[1,10] <= 1
 0 <= x[1,11] <= 1
 0 <= x[1,12] <= 1
 0 <= x[1,13] <= 1
 0 <= x[1,14] <= 1
 0 <= x[2,0] <= 1
 0 <= x[2,1] <= 1
 0 <= x[2,2] <= 1
 0 <= x[2,3] <= 1
 0 <= x[2,4] <= 1
 0 <= x[2,5] <= 1
 0 <= x[2,6] <= 1
 0 <= x[2,7] <= 1
 0 <= x[2,8] <= 1
 0 <= x[2,9] <= 1
 0 <= x[2,10] <= 1
 0 <= x[2,11] <= 1
 0 <= x[2,12] <= 1
 0 <= x[2,13] <= 1
 0 <= x[2,14] <= 1
 0 <= x[3,0] <= 1
 0 <= x[3,1] <= 1
 0 <= x[3,2] <= 1
 0 <= x[3,3] <= 1
 0 <= x[3,4] <= 1
 0 <= x[3,5] <= 1
 0 <= x[3,6] <= 1
 0 <= x[3,7] <= 1
 0 <= x[3,8] <= 1
 0 <= x[3,9] <= 1
 0 <= x[3,10] <= 1
 0 <= x[3,11] <= 1
 0 <= x[3,12] <= 1
 0 <= x[3,13] <= 1
 0 <= x[3,14] <= 1
 0 <= x[4,0] <= 1
 0 <= x[4,1] <= 1
 0 <= x[4,2] <= 1
 0 <= x[4,3] <= 1
 0 <= x[4,4] <= 1
 0 <= x[4,5] <= 1
 0 <= x[4,6] <= 1
 0 <= x[4,7] <= 1
 0 <= x[4,8] <= 1
 0 <= x[4,9] <= 1
 0 <= x[4,10] <= 1
 0 <= x[4,11] <= 1
 0 <= x[4,12] <= 1
 0 <= x[4,13] <= 1
 0 <= x[4,14] <= 1
 0 <= x[5,0] <= 1
 0 <= x[5,1] <= 1
 0 <= x[5,2] <= 1
 0 <= x[5,3] <= 1
 0 <= x[5,4] <= 1
 0 <= x[5,5] <= 1
 0 <= x[5,6] <= 1
 0 <= x[5,7] <= 1
 0 <= x[5,8] <= 1
 0 <= x[5,9] <= 1
 0 <= x[5,10] <= 1
 0 <= x[5,11] <= 1
 0 <= x[5,12] <= 1
 0 <= x[5,13] <= 1
 0 <= x[5,14] <= 1
 0 <= x[6,0] <= 1
 0 <= x[6,1] <= 1
 0 <= x[6,2] <= 1
 0 <= x[6,3] <= 1
 0 <= x[6,4] <= 1
 0 <= x[6,5] <= 1
 0 <= x[6,6] <= 1
 0 <= x[6,7] <= 1
 0 <= x[6,8] <= 1
 0 <= x[6,9] <= 1
 0 <= x[6,10] <= 1
 0 <= x[6,11] <= 1
 0 <= x[6,12] <= 1
 0 <= x[6,13] <= 1
 0 <= x[6,14] <= 1
 0 <= x[7,0] <= 1
 0 <= x[7,1] <= 1
 0 <= x[7,2] <= 1
 0 <= x[7,3] <= 1
 0 <= x[7,4] <= 1
 0 <= x[7,5] <= 1
 0 <= x[7,6] <= 1
 0 <= x[7,7] <= 1
 0 <= x[7,8] <= 1
 0 <= x[7,9] <= 1
 0 <= x[7,10] <= 1
 0 <= x[7,11] <= 1
 0 <= x[7,12] <= 1
 0 <= x[7,13] <= 1
 0 <= x[7,14] <= 1
 0 <= x[8,0] <= 1
 0 <= x[8,1] <= 1
 0 <= x[8,2] <= 1
 0 <= x[8,3] <= 1
 0 <= x[8,4] <= 1
 0 <= x[8,5] <= 1
 0 <= x[8,6] <= 1
 0 <= x[8,7] <= 1
 0 <= x[8,8] <= 1
 0 <= x[8,9] <= 1
 0 <= x[8,10] <= 1
 0 <= x[8,11] <= 1
 0 <= x[8,12] <= 1
 0 <= x[8,13] <= 1
 0 <= x[8,14] <= 1
 0 <= x[9,0] <= 1
 0 <= x[9,1] <= 1
 0 <= x[9,2] <= 1
 0 <= x[9,3] <= 1
 0 <= x[9,4] <= 1
 0 <= x[9,5] <= 1
 0 <= x[9,6] <= 1
 0 <= x[9,7] <= 1
 0 <= x[9,8] <= 1
 0 <= x[9,9] <= 1
 0 <= x[9,10] <= 1
 0 <= x[9,11] <= 1
 0 <= x[9,12] <= 1
 0 <= x[9,13] <= 1
 0 <= x[9,14] <= 1
 0 <= x[10,0] <= 1
 0 <= x[10,1] <= 1
 0 <= x[10,2] <= 1
 0 <= x[10,3] <= 1
 0 <= x[10,4] <= 1
 0 <= x[10,5] <= 1
 0 <= x[10,6] <= 1
 0 <= x[10,7] <= 1
 0 <= x[10,8] <= 1
 0 <= x[10,9] <= 1
 0 <= x[10,10] <= 1
 0 <= x[10,11] <= 1
 0 <= x[10,12] <= 1
 0 <= x[10,13] <= 1
 0 <= x[10,14] <= 1
 0 <= x[11,0] <= 1
 0 <= x[11,1] <= 1
 0 <= x[11,2] <= 1
 0 <= x[11,3] <= 1
 0 <= x[11,4] <= 1
 0 <= x[11,5] <= 1
 0 <= x[11,6] <= 1
 0 <= x[11,7] <= 1
 0 <= x[11,8] <= 1
 0 <= x[11,9] <= 1
 0 <= x[11,10] <= 1
 0 <= x[11,11] <= 1
 0 <= x[11,12] <= 1
 0 <= x[11,13] <= 1
 0 <= x[11,14] <= 1
 0 <= x[12,0] <= 1
 0 <= x[12,1] <= 1
 0 <= x[12,2] <= 1
 0 <= x[12,3] <= 1
 0 <= x[12,4] <= 1
 0 <= x[12,5] <= 1
 0 <= x[12,6] <= 1
 0 <= x[12,7] <= 1
 0 <= x[12,8] <= 1
 0 <= x[12,9] <= 1
 0 <= x[12,10] <= 1
 0 <= x[12,11] <= 1
 0 <= x[12,12] <= 1
 0 <= x[12,13] <= 1
 0 <= x[12,14] <= 1
 0 <= x[13,0] <= 1
 0 <= x[13,1] <= 1
 0 <= x[13,2] <= 1
 0 <= x[13,3] <= 1
 0 <= x[13,4] <= 1
 0 <= x[13,5] <= 1
 0 <= x[13,6] <= 1
 0 <= x[13,7] <= 1
 0 <= x[13,8] <= 1
 0 <= x[13,9] <= 1
 0 <= x[13,10] <= 1
 0 <= x[13,11] <= 1
 0 <= x[13,12] <= 1
 0 <= x[13,13] <= 1
 0 <= x[13,14] <= 1
 0 <= x[14,0] <= 1
 0 <= x[14,1] <= 1
 0 <= x[14,2] <= 1
 0 <= x[14,3] <= 1
 0 <= x[14,4] <= 1
 0 <= x[14,5] <= 1
 0 <= x[14,6] <= 1
 0 <= x[14,7] <= 1
 0 <= x[14,8] <= 1
 0 <= x[14,9] <= 1
 0 <= x[14,10] <= 1
 0 <= x[14,11] <= 1
 0 <= x[14,12] <= 1
 0 <= x[14,13] <= 1
 0 <= x[14,14] <= 1
 0 <= x[15,0] <= 1
 0 <= x[15,1] <= 1
 0 <= x[15,2] <= 1
 0 <= x[15,3] <= 1
 0 <= x[15,4] <= 1
 0 <= x[15,5] <= 1
 0 <= x[15,6] <= 1
 0 <= x[15,7] <= 1
 0 <= x[15,8] <= 1
 0 <= x[15,9] <= 1
 0 <= x[15,10] <= 1
 0 <= x[15,11] <= 1
 0 <= x[15,12] <= 1
 0 <= x[15,13] <= 1
 0 <= x[15,14] <= 1
 0 <= x[16,0] <= 1
 0 <= x[16,1] <= 1
 0 <= x[16,2] <= 1
 0 <= x[16,3] <= 1
 0 <= x[16,4] <= 1
 0 <= x[16,5] <= 1
 0 <= x[16,6] <= 1
 0 <= x[16,7] <= 1
 0 <= x[16,8] <= 1
 0 <= x[16,9] <= 1
 0 <= x[16,10] <= 1
 0 <= x[16,11] <= 1
 0 <= x[16,12] <= 1
 0 <= x[16,13] <= 1
 0 <= x[16,14] <= 1
 0 <= x[17,0] <= 1
 0 <= x[17,1] <= 1
 0 <= x[17,2] <= 1
 0 <= x[17,3] <= 1
 0 <= x[17,4] <= 1
 0 <= x[17,5] <= 1
 0 <= x[17,6] <= 1
 0 <= x[17,7] <= 1
 0 <= x[17,8] <= 1
 0 <= x[17,9] <= 1
 0 <= x[17,10] <= 1
 0 <= x[17,11] <= 1
 0 <= x[17,12] <= 1
 0 <= x[17,13] <= 1
 0 <= x[17,14] <= 1
 0 <= x[18,0] <= 1
 0 <= x[18,1] <= 1
 0 <= x[18,2] <= 1
 0 <= x[18,3] <= 1
 0 <= x[18,4] <= 1
 0 <= x[18,5] <= 1
 0 <= x[18,6] <= 1
 0 <= x[18,7] <= 1
 0 <= x[18,8] <= 1
 0 <= x[18,9] <= 1
 0 <= x[18,10] <= 1
 0 <= x[18,11] <= 1
 0 <= x[18,12] <= 1
 0 <= x[18,13] <= 1
 0 <= x[18,14] <= 1
 0 <= x[19,0] <= 1
 0 <= x[19,1] <= 1
 0 <= x[19,2] <= 1
 0 <= x[19,3] <= 1
 0 <= x[19,4] <= 1
 0 <= x[19,5] <= 1
 0 <= x[19,6] <= 1
 0 <= x[19,7] <= 1
 0 <= x[19,8] <= 1
 0 <= x[19,9] <= 1
 0 <= x[19,10] <= 1
 0 <= x[19,11] <= 1
 0 <= x[19,12] <= 1
 0 <= x[19,13] <= 1
 0 <= x[19,14] <= 1
 0 <= x[20,0] <= 1
 0 <= x[20,1] <= 1
 0 <= x[20,2] <= 1
 0 <= x[20,3] <= 1
 0 <= x[20,4] <= 1
 0 <= x[20,5] <= 1
 0 <= x[20,6] <= 1
 0 <= x[20,7] <= 1
 0 <= x[20,8] <= 1
 0 <= x[20,9] <= 1
 0 <= x[20,10] <= 1
 0 <= x[20,11] <= 1
 0 <= x[20,12] <= 1
 0 <= x[20,13] <= 1
 0 <= x[20,14] <= 1
 0 <= x[21,0] <= 1
 0 <= x[21,1] <= 1
 0 <= x[21,2] <= 1
 0 <= x[21,3] <= 1
 0 <= x[21,4] <= 1
 0 <= x[21,5] <= 1
 0 <= x[21,6] <= 1
 0 <= x[21,7] <= 1
 0 <= x[21,8] <= 1
 0 <= x[21,9] <= 1
 0 <= x[21,10] <= 1
 0 <= x[21,11] <= 1
 0 <= x[21,12] <= 1
 0 <= x[21,13] <= 1
 0 <= x[21,14] <= 1
 0 <= x[22,0] <= 1
 0 <= x[22,1] <= 1
 0 <= x[22,2] <= 1
 0 <= x[22,3] <= 1
 0 <= x[22,4] <= 1
 0 <= x[22,5] <= 1
 0 <= x[22,6] <= 1
 0 <= x[22,7] <= 1
 0 <= x[22,8] <= 1
 0 <= x[22,9] <= 1
 0 <= x[22,10] <= 1
 0 <= x[22,11] <= 1
 0 <= x[22,12] <= 1
 0 <= x[22,13] <= 1
 0 <= x[22,14] <= 1
 0 <= x[23,0] <= 1
 0 <= x[23,1] <= 1
 0 <= x[23,2] <= 1
 0 <= x[23,3] <= 1
 0 <= x[23,4] <= 1
 0 <= x[23,5] <= 1
 0 <= x[23,6] <= 1
 0 <= x[23,7] <= 1
 0 <= x[23,8] <= 1
 0 <= x[23,9] <= 1
 0 <= x[23,10] <= 1
 0 <= x[23,11] <= 1
 0 <= x[23,12] <= 1
 0 <= x[23,13] <= 1
 0 <= x[23,14] <= 1
 0 <= x[24,0] <= 1
 0 <= x[24,1] <= 1
 0 <= x[24,2] <= 1
 0 <= x[24,3] <= 1
 0 <= x[24,4] <= 1
 0 <= x[24,5] <= 1
 0 <= x[24,6] <= 1
 0 <= x[24,7] <= 1
 0 <= x[24,8] <= 1
 0 <= x[24,9] <= 1
 0 <= x[24,10] <= 1
 0 <= x[24,11] <= 1
 0 <= x[24,12] <= 1
 0 <= x[24,13] <= 1
 0 <= x[24,14] <= 1
 0 <= x[25,0] <= 1
 0 <= x[25,1] <= 1
 0 <= x[25,2] <= 1
 0 <= x[25,3] <= 1
 0 <= x[25,4] <= 1
 0 <= x[25,5] <= 1
 0 <= x[25,6] <= 1
 0 <= x[25,7] <= 1
 0 <= x[25,8] <= 1
 0 <= x[25,9] <= 1
 0 <= x[25,10] <= 1
 0 <= x[25,11] <= 1
 0 <= x[25,12] <= 1
 0 <= x[25,13] <= 1
 0 <= x[25,14] <= 1
 0 <= x[26,0] <= 1
 0 <= x[26,1] <= 1
 0 <= x[26,2] <= 1
 0 <= x[26,3] <= 1
 0 <= x[26,4] <= 1
 0 <= x[26,5] <= 1
 0 <= x[26,6] <= 1
 0 <= x[26,7] <= 1
 0 <= x[26,8] <= 1
 0 <= x[26,9] <= 1
 0 <= x[26,10] <= 1
 0 <= x[26,11] <= 1
 0 <= x[26,12] <= 1
 0 <= x[26,13] <= 1
 0 <= x[26,14] <= 1
 0 <= x[27,0] <= 1
 0 <= x[27,1] <= 1
 0 <= x[27,2] <= 1
 0 <= x[27,3] <= 1
 0 <= x[27,4] <= 1
 0 <= x[27,5] <= 1
 0 <= x[27,6] <= 1
 0 <= x[27,7] <= 1
 0 <= x[27,8] <= 1
 0 <= x[27,9] <= 1
 0 <= x[27,10] <= 1
 0 <= x[27,11] <= 1
 0 <= x[27,12] <= 1
 0 <= x[27,13] <= 1
 0 <= x[27,14] <= 1
 0 <= x[28,0] <= 1
 0 <= x[28,1] <= 1
 0 <= x[28,2] <= 1
 0 <= x[28,3] <= 1
 0 <= x[28,4] <= 1
 0 <= x[28,5] <= 1
 0 <= x[28,6] <= 1
 0 <= x[28,7] <= 1
 0 <= x[28,8] <= 1
 0 <= x[28,9] <= 1
 0 <= x[28,10] <= 1
 0 <= x[28,11] <= 1
 0 <= x[28,12] <= 1
 0 <= x[28,13] <= 1
 0 <= x[28,14] <= 1
 0 <= x[29,0] <= 1
 0 <= x[29,1] <= 1
 0 <= x[29,2] <= 1
 0 <= x[29,3] <= 1
 0 <= x[29,4] <= 1
 0 <= x[29,5] <= 1
 0 <= x[29,6] <= 1
 0 <= x[29,7] <= 1
 0 <= x[29,8] <= 1
 0 <= x[29,9] <= 1
 0 <= x[29,10] <= 1
 0 <= x[29,11] <= 1
 0 <= x[29,12] <= 1
 0 <= x[29,13] <= 1
 0 <= x[29,14] <= 1
 0 <= y[0] <= 1
 0 <= y[1] <= 1
 0 <= y[2] <= 1
 0 <= y[3] <= 1
 0 <= y[4] <= 1
 0 <= y[5] <= 1
 0 <= y[6] <= 1
 0 <= y[7] <= 1
 0 <= y[8] <= 1
 0 <= y[9] <= 1
 0 <= y[10] <= 1
 0 <= y[11] <= 1
 0 <= y[12] <= 1
 0 <= y[13] <= 1
 0 <= y[14] <= 1
Binaries
 x[0,0]
 x[0,1]
 x[0,2]
 x[0,3]
 x[0,4]
 x[0,5]
 x[0,6]
 x[0,7]
 x[0,8]
 x[0,9]
 x[0,10]
 x[0,11]
 x[0,12]
 x[0,13]
 x[0,14]
 x[1,0]
 x[1,1]
 x[1,2]
 x[1,3]
 x[1,4]
 x[1,5]
 x[1,6]
 x[1,7]
 x[1,8]
 x[1,9]
 x[1,10]
 x[1,11]
 x[1,12]
 x[1,13]
 x[1,14]
 x[2,0]
 x[2,1]
 x[2,2]
 x[2,3]
 x[2,4]
 x[2,5]
 x[2,6]
 x[2,7]
 x[2,8]
 x[2,9]
 x[2,10]
 x[2,11]
 x[2,12]
 x[2,13]
 x[2,14]
 x[3,0]
 x[3,1]
 x[3,2]
 x[3,3]
 x[3,4]
 x[3,5]
 x[3,6]
 x[3,7]
 x[3,8]
 x[3,9]
 x[3,10]
 x[3,11]
 x[3,12]
 x[3,13]
 x[3,14]
 x[4,0]
 x[4,1]
 x[4,2]
 x[4,3]
 x[4,4]
 x[4,5]
 x[4,6]
 x[4,7]
 x[4,8]
 x[4,9]
 x[4,10]
 x[4,11]
 x[4,12]
 x[4,13]
 x[4,14]
 x[5,0]
 x[5,1]
 x[5,2]
 x[5,3]
 x[5,4]
 x[5,5]
 x[5,6]
 x[5,7]
 x[5,8]
 x[5,9]
 x[5,10]
 x[5,11]
 x[5,12]
 x[5,13]
 x[5,14]
 x[6,0]
 x[6,1]
 x[6,2]
 x[6,3]
 x[6,4]
 x[6,5]
 x[6,6]
 x[6,7]
 x[6,8]
 x[6,9]
 x[6,10]
 x[6,11]
 x[6,12]
 x[6,13]
 x[6,14]
 x[7,0]
 x[7,1]
 x[7,2]
 x[7,3]
 x[7,4]
 x[7,5]
 x[7,6]
 x[7,7]
 x[7,8]
 x[7,9]
 x[7,10]
 x[7,11]
 x[7,12]
 x[7,13]
 x[7,14]
 x[8,0]
 x[8,1]
 x[8,2]
 x[8,3]
 x[8,4]
 x[8,5]
 x[8,6]
 x[8,7]
 x[8,8]
 x[8,9]
 x[8,10]
 x[8,11]
 x[8,12]
 x[8,13]
 x[8,14]
 x[9,0]
 x[9,1]
 x[9,2]
 x[9,3]
 x[9,4]
 x[9,5]
 x[9,6]
 x[9,7]
 x[9,8]
 x[9,9]
 x[9,10]
 x[9,11]
 x[9,12]
 x[9,13]
 x[9,14]
 x[10,0]
 x[10,1]
 x[10,2]
 x[10,3]
 x[10,4]
 x[10,5]
 x[10,6]
 x[10,7]
 x[10,8]
 x[10,9]
 x[10,10]
 x[10,11]
 x[10,12]
 x[10,13]
 x[10,14]
 x[11,0]
 x[11,1]
 x[11,2]
 x[11,3]
 x[11,4]
 x[11,5]
 x[11,6]
 x[11,7]
 x[11,8]
 x[11,9]
 x[11,10]
 x[11,11]
 x[11,12]
 x[11,13]
 x[11,14]
 x[12,0]
 x[12,1]
 x[12,2]
 x[12,3]
 x[12,4]
 x[12,5]
 x[12,6]
 x[12,7]
 x[12,8]
 x[12,9]
 x[12,10]
 x[12,11]
 x[12,12]
 x[12,13]
 x[12,14]
 x[13,0]
 x[13,1]
 x[13,2]
 x[13,3]
 x[13,4]
 x[13,5]
 x[13,6]
 x[13,7]
 x[13,8]
 x[13,9]
 x[13,10]
 x[13,11]
 x[13,12]
 x[13,13]
 x[13,14]
 x[14,0]
 x[14,1]
 x[14,2]
 x[14,3]
 x[14,4]
 x[14,5]
 x[14,6]
 x[14,7]
 x[14,8]
 x[14,9]
 x[14,10]
 x[14,11]
 x[14,12]
 x[14,13]
 x[14,14]
 x[15,0]
 x[15,1]
 x[15,2]
 x[15,3]
 x[15,4]
 x[15,5]
 x[15,6]
 x[15,7]
 x[15,8]
 x[15,9]
 x[15,10]
 x[15,11]
 x[15,12]
 x[15,13]
 x[15,14]
 x[16,0]
 x[16,1]
 x[16,2]
 x[16,3]
 x[16,4]
 x[16,5]
 x[16,6]
 x[16,7]
 x[16,8]
 x[16,9]
 x[16,10]
 x[16,11]
 x[16,12]
 x[16,13]
 x[16,14]
 x[17,0]
 x[17,1]
 x[17,2]
 x[17,3]
 x[17,4]
 x[17,5]
 x[17,6]
 x[17,7]
 x[17,8]
 x[17,9]
 x[17,10]
 x[17,11]
 x[17,12]
 x[17,13]
 x[17,14]
 x[18,0]
 x[18,1]
 x[18,2]
 x[18,3]
 x[18,4]
 x[18,5]
 x[18,6]
 x[18,7]
 x[18,8]
 x[18,9]
 x[18,10]
 x[18,11]
 x[18,12]
 x[18,13]
 x[18,14]
 x[19,0]
 x[19,1]
 x[19,2]
 x[19,3]
 x[19,4]
 x[19,5]
 x[19,6]
 x[19,7]
 x[19,8]
 x[19,9]
 x[19,10]
 x[19,11]
 x[19,12]
 x[19,13]
 x[19,14]
 x[20,0]
 x[20,1]
 x[20,2]
 x[20,3]
 x[20,4]
 x[20,5]
 x[20,6]
 x[20,7]
 x[20,8]
 x[20,9]
 x[20,10]
 x[20,11]
 x[20,12]
 x[20,13]
 x[20,14]
 x[21,0]
 x[21,1]
 x[21,2]
 x[21,3]
 x[21,4]
 x[21,5]
 x[21,6]
 x[21,7]
 x[21,8]
 x[21,9]
 x[21,10]
 x[21,11]
 x[21,12]
 x[21,13]
 x[21,14]
 x[22,0]
 x[22,1]
 x[22,2]
 x[22,3]
 x[22,4]
 x[22,5]
 x[22,6]
 x[22,7]
 x[22,8]
 x[22,9]
 x[22,10]
 x[22,11]
 x[22,12]
 x[22,13]
 x[22,14]
 x[23,0]
 x[23,1]
 x[23,2]
 x[23,3]
 x[23,4]
 x[23,5]
 x[23,6]
 x[23,7]
 x[23,8]
 x[23,9]
 x[23,10]
 x[23,11]
 x[23,12]
 x[23,13]
 x[23,14]
 x[24,0]
 x[24,1]
 x[24,2]
 x[24,3]
 x[24,4]
 x[24,5]
 x[24,6]
 x[24,7]
 x[24,8]
 x[24,9]
 x[24,10]
 x[24,11]
 x[24,12]
 x[24,13]
 x[24,14]
 x[25,0]
 x[25,1]
 x[25,2]
 x[25,3]
 x[25,4]
 x[25,5]
 x[25,6]
 x[25,7]
 x[25,8]
 x[25,9]
 x[25,10]
 x[25,11]
 x[25,12]
 x[25,13]
 x[25,14]
 x[26,0]
 x[26,1]
 x[26,2]
 x[26,3]
 x[26,4]
 x[26,5]
 x[26,6]
 x[26,7]
 x[26,8]
 x[26,9]
 x[26,10]
 x[26,11]
 x[26,12]
 x[26,13]
 x[26,14]
 x[27,0]
 x[27,1]
 x[27,2]
 x[27,3]
 x[27,4]
 x[27,5]
 x[27,6]
 x[27,7]
 x[27,8]
 x[27,9]
 x[27,10]
 x[27,11]
 x[27,12]
 x[27,13]
 x[27,14]
 x[28,0]
 x[28,1]
 x[28,2]
 x[28,3]
 x[28,4]
 x[28,5]
 x[28,6]
 x[28,7]
 x[28,8]
 x[28,9]
 x[28,10]
 x[28,11]
 x[28,12]
 x[28,13]
 x[28,14]
 x[29,0]
 x[29,1]
 x[29,2]
 x[29,3]
 x[29,4]
 x[29,5]
 x[29,6]
 x[29,7]
 x[29,8]
 x[29,9]
 x[29,10]
 x[29,11]
 x[29,12]
 x[29,13]
 x[29,14]
 y[0]
 y[1]
 y[2]
 y[3]
 y[4]
 y[5]
 y[6]
 y[7]
 y[8]
 y[9]
 y[10]
 y[11]
 y[12]
 y[13]
 y[14]
End
